
--- Job cricketSquadPicker.gms Start 11/28/23 00:09:44 45.3.0 c4c31d8a WEX-WEI x86 64bit/MS Windows
--- Applying:
    C:\GAMS\45\gmsprmNT.txt
--- GAMS Parameters defined
    Input "C:\Users\DELL\OneDrive\Desktop\IITG Sem 5\CL 643\CL-643-Project\cricketSquadPicker.gms"
    PageSize 0
    ScrDir "C:\Users\DELL\OneDrive\Desktop\IITG Sem 5\CL 643\CL-643-Project\225a\"
    SysDir C:\GAMS\45\
    LogOption 3
    ErrMsg 1
    ErrorLog 99
    IDE 1
    LstTitleLeftAligned 1
Licensee: GAMS Demo, for EULA and demo limitations see   G230930/0001CB-GEN
          https://www.gams.com/latest/docs/UG%5FLicense.html         DC0000
          C:\GAMS\45\gamslice.txt
          Demo license for demonstration and instructional purposes only
Processor information: 1 socket(s), 2 core(s), and 4 thread(s) available
GAMS 45.3.0   Copyright (C) 1987-2023 GAMS Development. All rights reserved
--- Starting compilation
--- cricketSquadPicker.gms(414) 3 Mb
--- Starting execution: elapsed 0:00:00.024
--- Generating MIP model cric
--- cricketSquadPicker.gms(411) 4 Mb
---   8 rows  62 columns  310 non-zeroes
---   60 discrete-columns
--- Range statistics (absolute non-zero finite values)
--- RHS       [min, max] : [ 2.000E+00, 2.000E+01] - Zero values observed as well
--- Bound     [min, max] : [ 1.000E+00, 1.000E+00] - Zero values observed as well
--- Matrix    [min, max] : [ 5.000E-04, 1.000E+00]
--- Executing CPLEX (Solvelink=2): elapsed 0:00:00.059

IBM ILOG CPLEX   45.3.0 c4c31d8a Nov 11, 2023          WEI x86 64bit/MS Window

*** This solver runs with a demo license. No commercial use.
--- GMO setup time: 0.00s
--- GMO memory 0.50 Mb (peak 0.51 Mb)
--- Dictionary memory 0.00 Mb
--- Cplex 22.1.1.0 link memory 0.00 Mb (peak 0.01 Mb)
--- Starting Cplex

Version identifier: 22.1.1.0 | 2022-11-27 | 9160aff4d
CPXPARAM_Advance                                 0
CPXPARAM_Simplex_Display                         2
CPXPARAM_Threads                                 1
CPXPARAM_MIP_Display                             4
CPXPARAM_MIP_Pool_Capacity                       0
CPXPARAM_MIP_Tolerances_AbsMIPGap                0
Generic callback                                 0x50
Tried aggregator 1 time.
MIP Presolve eliminated 2 rows and 2 columns.
MIP Presolve modified 110 coefficients.
Reduced MIP has 4 rows, 60 columns, and 116 nonzeros.
Reduced MIP has 60 binaries, 0 generals, 0 SOSs, and 0 indicators.
Presolve time = 0.00 sec. (0.12 ticks)
Found incumbent of value 6.654500 after 0.00 sec. (0.53 ticks)
Probing time = 0.00 sec. (0.01 ticks)
Tried aggregator 1 time.
Detecting symmetries...
Reduced MIP has 4 rows, 60 columns, and 116 nonzeros.
Reduced MIP has 60 binaries, 0 generals, 0 SOSs, and 0 indicators.
Presolve time = 0.00 sec. (0.07 ticks)
Dual steepest-edge pricing selected.
Probing time = 0.00 sec. (0.01 ticks)
MIP emphasis: balance optimality and feasibility.
MIP search method: dynamic search.
Parallel mode: none, using 1 thread.
Tried aggregator 1 time.
No LP presolve or aggregator reductions.
Presolve time = 0.00 sec. (0.02 ticks)
Initializing dual steep norms . . .

Iteration      Dual Objective            In Variable           Out Variable
     1               8.930847                   x(2)          batting slack
     2               8.870731                  x(10)                  x(35)
     3               7.969892                  x(38)                  x(22)
     4               7.817078                  x(50)                   x(2)
     5               7.500497                  x(41)                  x(10)
     6               7.419686                  x(36)                  x(38)
     7               7.410835                  x(29)                  x(41)
Root relaxation solution time = 0.02 sec. (0.04 ticks)

        Nodes                                         Cuts/
   Node  Left     Objective  IInf  Best Integer    Best Bound    ItCnt     Gap

*     0+    0                            6.6545       23.5090           253.28%
Found incumbent of value 6.654500 after 0.02 sec. (0.70 ticks)
      0     0        7.4108     2        6.6545        7.4108        7   11.37%
*     0+    0                            7.3980        7.4108             0.17%
Found incumbent of value 7.398000 after 0.02 sec. (0.73 ticks)
      0     0        cutoff              7.3980                      8     --- 
Elapsed time = 0.02 sec. (0.75 ticks, tree = 0.01 MB)

Root node processing (before b&c):
  Real time             =    0.02 sec. (0.75 ticks)
Sequential b&c:
  Real time             =    0.00 sec. (0.00 ticks)
                          ------------
Total (root+branch&cut) =    0.02 sec. (0.75 ticks)

--- MIP status (101): integer optimal solution.
--- Cplex Time: 0.02sec (det. 0.75 ticks)

--- Returning a primal only solution to GAMS (marginals all set to NA).
--- Fixing integer variables and solving final LP...

Version identifier: 22.1.1.0 | 2022-11-27 | 9160aff4d
CPXPARAM_Advance                                 2
CPXPARAM_Simplex_Display                         2
CPXPARAM_Threads                                 1
CPXPARAM_MIP_Display                             4
CPXPARAM_MIP_Pool_Capacity                       0
CPXPARAM_MIP_Tolerances_AbsMIPGap                0
Tried aggregator 1 time.
LP Presolve eliminated 7 rows and 62 columns.
All rows and columns eliminated.
Presolve time = 0.00 sec. (0.02 ticks)

--- Fixed MIP status (1): optimal.
--- Cplex Time: 0.00sec (det. 0.03 ticks)


Proven optimal solution
MIP Solution:            7.398000    (8 iterations, 0 nodes)
Final Solve:             7.398000    (0 iterations)

Best possible:           7.398000
Absolute gap:            0.000000
Relative gap:            0.000000

--- Reading solution for model cric
--- Executing after solve: elapsed 0:00:00.355
--- cricketSquadPicker.gms(414) 4 Mb
*** Status: Normal completion
--- Job cricketSquadPicker.gms Stop 11/28/23 00:09:44 elapsed 0:00:00.364
